c at-most-two of 9 pidgeon in 4 holes
c p1@1 1
c p2@1 2
c p3@1 3
c p4@1 4
c p5@1 5
c p6@1 6
c p7@1 7
c p8@1 8
c p9@1 9
c p1@2 10
c p2@2 11
c p3@2 12
c p4@2 13
c p5@2 14
c p6@2 15
c p7@2 16
c p8@2 17
c p9@2 18
c p1@3 19
c p2@3 20
c p3@3 21
c p4@3 22
c p5@3 23
c p6@3 24
c p7@3 25
c p8@3 26
c p9@3 27
c p1@4 28
c p2@4 29
c p3@4 30
c p4@4 31
c p5@4 32
c p6@4 33
c p7@4 34
c p8@4 35
c p9@4 36
p cnf 36 345
-1 -2 -3 0
-1 -2 -4 0
-1 -2 -5 0
-1 -2 -6 0
-1 -2 -7 0
-1 -2 -8 0
-1 -2 -9 0
-1 -3 -4 0
-1 -3 -5 0
-1 -3 -6 0
-1 -3 -7 0
-1 -3 -8 0
-1 -3 -9 0
-1 -4 -5 0
-1 -4 -6 0
-1 -4 -7 0
-1 -4 -8 0
-1 -4 -9 0
-1 -5 -6 0
-1 -5 -7 0
-1 -5 -8 0
-1 -5 -9 0
-1 -6 -7 0
-1 -6 -8 0
-1 -6 -9 0
-1 -7 -8 0
-1 -7 -9 0
-1 -8 -9 0
-2 -3 -4 0
-2 -3 -5 0
-2 -3 -6 0
-2 -3 -7 0
-2 -3 -8 0
-2 -3 -9 0
-2 -4 -5 0
-2 -4 -6 0
-2 -4 -7 0
-2 -4 -8 0
-2 -4 -9 0
-2 -5 -6 0
-2 -5 -7 0
-2 -5 -8 0
-2 -5 -9 0
-2 -6 -7 0
-2 -6 -8 0
-2 -6 -9 0
-2 -7 -8 0
-2 -7 -9 0
-2 -8 -9 0
-3 -4 -5 0
-3 -4 -6 0
-3 -4 -7 0
-3 -4 -8 0
-3 -4 -9 0
-3 -5 -6 0
-3 -5 -7 0
-3 -5 -8 0
-3 -5 -9 0
-3 -6 -7 0
-3 -6 -8 0
-3 -6 -9 0
-3 -7 -8 0
-3 -7 -9 0
-3 -8 -9 0
-4 -5 -6 0
-4 -5 -7 0
-4 -5 -8 0
-4 -5 -9 0
-4 -6 -7 0
-4 -6 -8 0
-4 -6 -9 0
-4 -7 -8 0
-4 -7 -9 0
-4 -8 -9 0
-5 -6 -7 0
-5 -6 -8 0
-5 -6 -9 0
-5 -7 -8 0
-5 -7 -9 0
-5 -8 -9 0
-6 -7 -8 0
-6 -7 -9 0
-6 -8 -9 0
-7 -8 -9 0
-10 -11 -12 0
-10 -11 -13 0
-10 -11 -14 0
-10 -11 -15 0
-10 -11 -16 0
-10 -11 -17 0
-10 -11 -18 0
-10 -12 -13 0
-10 -12 -14 0
-10 -12 -15 0
-10 -12 -16 0
-10 -12 -17 0
-10 -12 -18 0
-10 -13 -14 0
-10 -13 -15 0
-10 -13 -16 0
-10 -13 -17 0
-10 -13 -18 0
-10 -14 -15 0
-10 -14 -16 0
-10 -14 -17 0
-10 -14 -18 0
-10 -15 -16 0
-10 -15 -17 0
-10 -15 -18 0
-10 -16 -17 0
-10 -16 -18 0
-10 -17 -18 0
-11 -12 -13 0
-11 -12 -14 0
-11 -12 -15 0
-11 -12 -16 0
-11 -12 -17 0
-11 -12 -18 0
-11 -13 -14 0
-11 -13 -15 0
-11 -13 -16 0
-11 -13 -17 0
-11 -13 -18 0
-11 -14 -15 0
-11 -14 -16 0
-11 -14 -17 0
-11 -14 -18 0
-11 -15 -16 0
-11 -15 -17 0
-11 -15 -18 0
-11 -16 -17 0
-11 -16 -18 0
-11 -17 -18 0
-12 -13 -14 0
-12 -13 -15 0
-12 -13 -16 0
-12 -13 -17 0
-12 -13 -18 0
-12 -14 -15 0
-12 -14 -16 0
-12 -14 -17 0
-12 -14 -18 0
-12 -15 -16 0
-12 -15 -17 0
-12 -15 -18 0
-12 -16 -17 0
-12 -16 -18 0
-12 -17 -18 0
-13 -14 -15 0
-13 -14 -16 0
-13 -14 -17 0
-13 -14 -18 0
-13 -15 -16 0
-13 -15 -17 0
-13 -15 -18 0
-13 -16 -17 0
-13 -16 -18 0
-13 -17 -18 0
-14 -15 -16 0
-14 -15 -17 0
-14 -15 -18 0
-14 -16 -17 0
-14 -16 -18 0
-14 -17 -18 0
-15 -16 -17 0
-15 -16 -18 0
-15 -17 -18 0
-16 -17 -18 0
-19 -20 -21 0
-19 -20 -22 0
-19 -20 -23 0
-19 -20 -24 0
-19 -20 -25 0
-19 -20 -26 0
-19 -20 -27 0
-19 -21 -22 0
-19 -21 -23 0
-19 -21 -24 0
-19 -21 -25 0
-19 -21 -26 0
-19 -21 -27 0
-19 -22 -23 0
-19 -22 -24 0
-19 -22 -25 0
-19 -22 -26 0
-19 -22 -27 0
-19 -23 -24 0
-19 -23 -25 0
-19 -23 -26 0
-19 -23 -27 0
-19 -24 -25 0
-19 -24 -26 0
-19 -24 -27 0
-19 -25 -26 0
-19 -25 -27 0
-19 -26 -27 0
-20 -21 -22 0
-20 -21 -23 0
-20 -21 -24 0
-20 -21 -25 0
-20 -21 -26 0
-20 -21 -27 0
-20 -22 -23 0
-20 -22 -24 0
-20 -22 -25 0
-20 -22 -26 0
-20 -22 -27 0
-20 -23 -24 0
-20 -23 -25 0
-20 -23 -26 0
-20 -23 -27 0
-20 -24 -25 0
-20 -24 -26 0
-20 -24 -27 0
-20 -25 -26 0
-20 -25 -27 0
-20 -26 -27 0
-21 -22 -23 0
-21 -22 -24 0
-21 -22 -25 0
-21 -22 -26 0
-21 -22 -27 0
-21 -23 -24 0
-21 -23 -25 0
-21 -23 -26 0
-21 -23 -27 0
-21 -24 -25 0
-21 -24 -26 0
-21 -24 -27 0
-21 -25 -26 0
-21 -25 -27 0
-21 -26 -27 0
-22 -23 -24 0
-22 -23 -25 0
-22 -23 -26 0
-22 -23 -27 0
-22 -24 -25 0
-22 -24 -26 0
-22 -24 -27 0
-22 -25 -26 0
-22 -25 -27 0
-22 -26 -27 0
-23 -24 -25 0
-23 -24 -26 0
-23 -24 -27 0
-23 -25 -26 0
-23 -25 -27 0
-23 -26 -27 0
-24 -25 -26 0
-24 -25 -27 0
-24 -26 -27 0
-25 -26 -27 0
-28 -29 -30 0
-28 -29 -31 0
-28 -29 -32 0
-28 -29 -33 0
-28 -29 -34 0
-28 -29 -35 0
-28 -29 -36 0
-28 -30 -31 0
-28 -30 -32 0
-28 -30 -33 0
-28 -30 -34 0
-28 -30 -35 0
-28 -30 -36 0
-28 -31 -32 0
-28 -31 -33 0
-28 -31 -34 0
-28 -31 -35 0
-28 -31 -36 0
-28 -32 -33 0
-28 -32 -34 0
-28 -32 -35 0
-28 -32 -36 0
-28 -33 -34 0
-28 -33 -35 0
-28 -33 -36 0
-28 -34 -35 0
-28 -34 -36 0
-28 -35 -36 0
-29 -30 -31 0
-29 -30 -32 0
-29 -30 -33 0
-29 -30 -34 0
-29 -30 -35 0
-29 -30 -36 0
-29 -31 -32 0
-29 -31 -33 0
-29 -31 -34 0
-29 -31 -35 0
-29 -31 -36 0
-29 -32 -33 0
-29 -32 -34 0
-29 -32 -35 0
-29 -32 -36 0
-29 -33 -34 0
-29 -33 -35 0
-29 -33 -36 0
-29 -34 -35 0
-29 -34 -36 0
-29 -35 -36 0
-30 -31 -32 0
-30 -31 -33 0
-30 -31 -34 0
-30 -31 -35 0
-30 -31 -36 0
-30 -32 -33 0
-30 -32 -34 0
-30 -32 -35 0
-30 -32 -36 0
-30 -33 -34 0
-30 -33 -35 0
-30 -33 -36 0
-30 -34 -35 0
-30 -34 -36 0
-30 -35 -36 0
-31 -32 -33 0
-31 -32 -34 0
-31 -32 -35 0
-31 -32 -36 0
-31 -33 -34 0
-31 -33 -35 0
-31 -33 -36 0
-31 -34 -35 0
-31 -34 -36 0
-31 -35 -36 0
-32 -33 -34 0
-32 -33 -35 0
-32 -33 -36 0
-32 -34 -35 0
-32 -34 -36 0
-32 -35 -36 0
-33 -34 -35 0
-33 -34 -36 0
-33 -35 -36 0
-34 -35 -36 0
1 10 19 28 0
2 11 20 29 0
3 12 21 30 0
4 13 22 31 0
5 14 23 32 0
6 15 24 33 0
7 16 25 34 0
8 17 26 35 0
9 18 27 36 0
